(declare-const delta_i Int)
(declare-const delta_j Int)
(assert (exists
         ((|j'?1| Int) (|S1,0?2| Real) (|i'?3| Int) (KSUM1?4 Int)
            (|K1,0?5| Int) (K?6 Int) (|i'?7| Int) (i?8 Int) (maxgrid?9 Int)
            (j?10 Int))
         (and (<= (- i?8) 0) (< (- j?10) 0) (<= (+ (- maxgrid?9) j?10 1) 0)
                (<= (- K?6) 0) (<= (- |K1,0?5|) 0) (= (+ |K1,0?5| (- K?6)) 0)
                (<= (+ KSUM1?4 (- K?6)) 0)
                (= (+ (- |S1,0?2|) |i'?3| (- |K1,0?5|)) 0)
                (= (+ (- KSUM1?4) |K1,0?5|) 0) (= (+ |S1,0?2| (- j?10)) 0)
                (or (and (= K?6 0) (= (+ (- |i'?3|) j?10) 0))
                      (and (<= (+ (- K?6) 1) 0)
                             (<= (+ (- maxgrid?9) j?10 1) 0)
                             (<= (+ (- j?10) 1) 0)
                             (<= (+ |i'?3| (- maxgrid?9)) 0)
                             (<= (+ (- |i'?3|) 2) 0)))
                (= (+ |i'?3| (- K?6) (- j?10)) 0) (<= (- K?6) 0)
                (< (- |i'?3|) 0) (< (- maxgrid?9) 0)
                (< (+ (- |i'?3|) maxgrid?9 -1) 0)
                (= (+ |j'?1| (- j?10) -1) 0) (= (+ |i'?7| (- |i'?3|)) 0)
                (= delta_i (+ |i'?7| (- i?8)))
                (= delta_j (+ |j'?1| (- j?10))))))
(check-sat)
